$rem
	JOBTYPE      SP
	METHOD     	 BLYP			! Set the exchange-correlation functions
	BASIS        DZ*
	LRC_DFT		 TRUE			! Control the application of long-range-corrected DFT
	OMEGA		 410			! Set the range-separation parameter
	!GUI  =  2
	MAX_SCF_CYCLES	 200
	SCF_PRINT_FRGM   TRUE		! for printing out SCF results of each fragments
	SCF_FINAL_PRINT  2
	SYM_IGNORE       TRUE		! Necessary rem key for DC calculations.
	SCF_GUESS        FRAGMO		! Use MOs of each fragments.
	STS_DC               FOCK	! Use Frontier Molecular Orbital (FMO) approach
	SCF_CONVERGENCE      5		! 5 For SP calculations/8 For OPT, vibrational analysis and SSG calculation; see p. 1083 in Q-Chem Manual 5.0
	STS_TRANS_DONOR      2-2
	STS_TRANS_ACCEPTOR   2-2
$end
